n = 21;
k = 4;
roles = [
{g, m},
{f, g},
{d, m},
{f, m},
{m, f},
{f, d},
{d, g},
{d, m},
{m, g},
{d, g},
{f, m},
{m, d},
{g, d},
{f, d},
{f, m},
{f, g},
{f, m},
{m, g},
{f, d},
{m, g},
{m, g}
];
num_pairs = 5;
player1 = [10, 2, 7, 20, 9];
player2 = [4, 3, 14, 17, 13];
